x
1
6
8
16
13
14
11
17
26
24
21
18
33
28
29
22
27
37
39
47
51
58
56
53
52
48
46
41
38
40
43
54
55
49
42
44
35
32
30
31
34
61
67
66
73
68
64
70
77
79
81
83
88
92
95
96
93
97
105
106
107
108
110
112
115
116
117
121
120
128
123
124
133
135
129
131
136
148
143
155
151
147
152
153
150
144
154
157
141
139
138
142
146
149
145
140
137
134
132
127
125
126
114
113
109
102
103
91
78
75
72
74
69
60
57
45
50
19
15
12
10
9
5
3
2
4
7
25
23
71
76
80
87
82
62
59
36
63
65
85
86
98
90
94
99
101
104
111
89
20
130
156
161
163
164
169
172
179
174
173
175
184
181
177
178
180
170
167
168
165
159
158
162
166
171
185
193
188
191
189
192
190
187
186
183
182
176
194
160
118
122
119
100
84
